10	5
0	3	1	3	2
1	2	9	10
2	1	9
3	1	5
4	2	7	9
5	1	6
6	1	4
7	1	8
8	1	11
9	1	11
10	1	11
11	0
0	0	0	0	0	0	0
1	9	5	2	5	0	3
2	8	3	3	5	0	2
3	10	2	2	0	0	5
4	7	0	1	0	2	0
5	3	0	0	0	3	0
6	7	0	0	0	4	0
7	10	3	3	0	0	0
8	9	0	0	0	0	5
9	8	5	2	5	0	1
10	2	2	0	3	2	0
11	0	0	0	0	0	0
6	6	6	5	6
